(set-logic QF_S)
(declare-fun var0 () String)
(declare-fun var1 () String)
(declare-fun var2 () String)
(declare-fun var3 () String)
(declare-fun var4 () String)
(declare-fun var5 () String)
(declare-fun var6 () String)
(declare-fun var7 () String)
(declare-fun var8 () String)
(declare-fun var9 () String)
(declare-fun var10 () String)
(declare-fun var11 () String)
(declare-fun var12 () String)
(declare-fun var13 () String)
(declare-fun var14 () String)
(declare-fun var15 () String)
(declare-fun var16 () String)
(declare-fun var17 () String)
(declare-fun var18 () String)
(declare-fun var19 () String)
(declare-fun var20 () String)
(declare-fun var21 () String)
(declare-fun var22 () String)
(declare-fun var23 () String)
(declare-fun var24 () String)
(declare-fun var25 () String)
(declare-fun var26 () String)
(declare-fun var27 () String)
(declare-fun var28 () String)
(declare-fun var29 () String)
(declare-fun var30 () String)
(declare-fun var31 () String)
(declare-fun var32 () String)
(declare-fun var33 () String)
(declare-fun var34 () String)
(declare-fun var35 () String)
(declare-fun var36 () String)
(declare-fun var37 () String)
(declare-fun var38 () String)
(declare-fun var39 () String)
(declare-fun var40 () String)
(declare-fun var41 () String)
(declare-fun var42 () String)
(declare-fun var43 () String)
(declare-fun var44 () String)
(declare-fun var45 () String)
(declare-fun var46 () String)
(declare-fun var47 () String)
(declare-fun var48 () String)
(declare-fun var49 () String)
(declare-fun var50 () String)
(declare-fun var51 () String)
(declare-fun var52 () String)
(declare-fun var53 () String)
(declare-fun var54 () String)
(declare-fun var55 () String)
(declare-fun var56 () String)
(declare-fun var57 () String)
(declare-fun var58 () String)
(declare-fun var59 () String)
(declare-fun var60 () String)
(assert (= var0 (str.++ var1 var2)))
(assert (= var2 (str.++ var3 var4)))
(assert (= var4 (str.++ var5 var6)))
(assert (= var6 (str.++ var7 var8)))
(assert (= var8 (str.++ var9 var10)))
(assert (= var10 (str.++ var11 var12)))
(assert (= var12 (str.++ var13 var14)))
(assert (= var14 (str.++ var15 var16)))
(assert (= var16 (str.++ var17 var18)))
(assert (= var18 (str.++ var19 var20)))
(assert (= var20 (str.++ var21 var22)))
(assert (= var22 (str.++ var23 var24)))
(assert (= var24 (str.++ var25 var26)))
(assert (= var26 (str.++ var27 var28)))
(assert (= var28 (str.++ var29 var30)))
(assert (= var30 (str.++ var31 var32)))
(assert (= var32 (str.++ var33 var34)))
(assert (= var34 (str.++ var35 var36)))
(assert (= var36 (str.++ var37 var38)))
(assert (= var38 (str.++ var39 var40)))
(assert (= var40 (str.++ var41 var42)))
(assert (= var42 (str.++ var43 var44)))
(assert (= var44 (str.++ var45 var46)))
(assert (= var46 (str.++ var47 var48)))
(assert (= var48 (str.++ var49 var50)))
(assert (= var50 (str.++ var51 var52)))
(assert (= var52 (str.++ var53 var54)))
(assert (= var54 (str.++ var55 var56)))
(assert (= var56 (str.++ var57 var58)))
(assert (= var58 (str.++ var59 var60)))
(assert (= var0 "solution"))
(assert (= "@" (str.at var46 332)))
(assert (= "l" (str.at var59 551)))
(assert (= "S" (str.at var57 910)))
(assert (= "~" (str.at var2 270)))
(assert (= "5" (str.at var19 902)))
(assert (= "h" (str.at var43 168)))
(assert (= "u" (str.at var6 167)))
(assert (= "<" (str.at var52 375)))
(assert (= "<" (str.at var59 980)))
(assert (= "B" (str.at var50 486)))
(assert (= "7" (str.at var31 176)))
(assert (= ">" (str.at var25 67)))
(assert (= "4" (str.at var23 864)))
(assert (= "i" (str.at var10 274)))
(assert (= "?" (str.at var58 273)))
(assert (= "q" (str.at var42 788)))
(assert (= "+" (str.at var27 379)))
(assert (= "O" (str.at var17 228)))
(assert (= "4" (str.at var37 471)))
(assert (= "(" (str.at var14 517)))
(assert (= "=" (str.at var25 487)))
(assert (= "o" (str.at var35 592)))
(assert (= "'" (str.at var5 892)))
(assert (= "7" (str.at var25 356)))
(assert (= "t" (str.at var35 7)))
(assert (= "v" (str.at var49 590)))
(assert (= "+" (str.at var46 842)))
(assert (= "K" (str.at var58 181)))
(assert (= "S" (str.at var53 48)))
(assert (= "Y" (str.at var36 902)))
(assert (= "$" (str.at var7 185)))
(assert (= "*" (str.at var7 557)))
(assert (= "z" (str.at var6 37)))
(assert (= "1" (str.at var35 32)))
(assert (= "o" (str.at var24 875)))
(assert (= "D" (str.at var57 522)))
(assert (= "z" (str.at var7 393)))
(assert (= "r" (str.at var11 358)))
(assert (= "G" (str.at var44 863)))
(assert (= """" (str.at var12 659)))
(assert (= "L" (str.at var19 583)))
(assert (= "4" (str.at var48 755)))
(assert (= "7" (str.at var50 795)))
(assert (= "&" (str.at var41 858)))
(assert (= "X" (str.at var26 549)))
(assert (= "/" (str.at var26 685)))
(assert (= """" (str.at var24 375)))
(assert (= "j" (str.at var11 310)))
(assert (= "Z" (str.at var12 842)))
(assert (= "m" (str.at var29 887)))
(assert (= "P" (str.at var2 387)))
(assert (= "/" (str.at var7 560)))
(assert (= "H" (str.at var40 595)))
(assert (= "l" (str.at var8 914)))
(assert (= "s" (str.at var60 382)))
(assert (= "2" (str.at var36 67)))
(assert (= "z" (str.at var45 127)))
(assert (= "&" (str.at var50 701)))
(assert (= "z" (str.at var21 770)))
(assert (= "d" (str.at var41 700)))
(assert (= "H" (str.at var38 375)))
(assert (= "W" (str.at var23 800)))
(assert (= "G" (str.at var17 111)))
(assert (= "3" (str.at var5 506)))
(assert (= "_" (str.at var41 315)))
(assert (= "a" (str.at var58 308)))
(assert (= "}" (str.at var51 47)))
(assert (= "*" (str.at var39 916)))
(assert (= "q" (str.at var5 710)))
(assert (= "G" (str.at var58 545)))
(assert (= "9" (str.at var56 298)))
(assert (= "b" (str.at var50 823)))
(assert (= "t" (str.at var58 860)))
(assert (= "I" (str.at var43 72)))
(assert (= "&" (str.at var42 947)))
(assert (= "O" (str.at var23 667)))
(assert (= "7" (str.at var1 1)))
(assert (= "d" (str.at var33 92)))
(assert (= "D" (str.at var60 721)))
(assert (= "4" (str.at var44 536)))
(assert (= "x" (str.at var14 681)))
(assert (= "^" (str.at var52 510)))
(assert (= "T" (str.at var43 747)))
(assert (= "%" (str.at var35 538)))
(assert (= "I" (str.at var14 193)))
(assert (= "/" (str.at var14 176)))
(assert (= "6" (str.at var0 187)))
(assert (= "!" (str.at var57 830)))
(assert (= "T" (str.at var51 9)))
(assert (= "s" (str.at var6 159)))
(assert (= "^" (str.at var55 425)))
(assert (= "G" (str.at var52 835)))
(assert (= "g" (str.at var39 379)))
(assert (= "i" (str.at var35 358)))
(assert (= "g" (str.at var45 486)))
(assert (= "`" (str.at var3 174)))
(assert (= "q" (str.at var21 87)))
(assert (= "p" (str.at var24 871)))
(assert (= "Y" (str.at var33 530)))
(assert (= "D" (str.at var31 63)))
(assert (= "V" (str.at var31 937)))
(assert (= "L" (str.at var45 452)))
(assert (= "Q" (str.at var54 357)))
(assert (= "N" (str.at var0 725)))
(assert (= "}" (str.at var20 170)))
(assert (= "d" (str.at var18 308)))
(assert (= "p" (str.at var54 235)))
(assert (= "g" (str.at var27 760)))
(assert (= "o" (str.at var25 634)))
(assert (= "A" (str.at var4 103)))
(assert (= "r" (str.at var32 60)))
(assert (= "0" (str.at var26 584)))
(assert (= ">" (str.at var53 425)))
(assert (= "B" (str.at var3 538)))
(assert (= "p" (str.at var59 941)))
(assert (= "E" (str.at var21 91)))
(assert (= "$" (str.at var8 803)))
(assert (= "o" (str.at var42 448)))
(assert (= "-" (str.at var55 766)))
(assert (= "^" (str.at var52 998)))
(assert (= "a" (str.at var52 794)))
(assert (= "_" (str.at var56 615)))
(assert (= ">" (str.at var13 638)))
(assert (= "o" (str.at var30 963)))
(assert (= "$" (str.at var47 887)))
(assert (= "2" (str.at var8 423)))
(assert (= "A" (str.at var2 536)))
(assert (= "M" (str.at var43 477)))
(assert (= "^" (str.at var3 86)))
(assert (= "F" (str.at var33 196)))
(assert (= "t" (str.at var40 93)))
(assert (= "a" (str.at var44 902)))
(assert (= "." (str.at var2 13)))
(assert (= "N" (str.at var24 351)))
(assert (= "l" (str.at var4 818)))
(assert (= "5" (str.at var47 680)))
(assert (= "g" (str.at var12 957)))
(assert (= "f" (str.at var19 431)))
(assert (= "1" (str.at var5 65)))
(assert (= "g" (str.at var18 822)))
(assert (= "7" (str.at var17 723)))
(assert (= "Z" (str.at var48 59)))
(assert (= "s" (str.at var30 93)))
(assert (= "P" (str.at var14 889)))
(assert (= "H" (str.at var7 245)))
(assert (= "\\" (str.at var51 779)))
(assert (= "R" (str.at var44 613)))
(assert (= "P" (str.at var4 375)))
(assert (= "c" (str.at var8 935)))
(assert (= "W" (str.at var39 410)))
(assert (= "(" (str.at var23 521)))
(assert (= "6" (str.at var24 296)))
(assert (= ")" (str.at var34 993)))
(assert (= "p" (str.at var39 756)))
(assert (= "R" (str.at var23 317)))
(assert (= "i" (str.at var1 544)))
(assert (= "L" (str.at var55 530)))
(assert (= "," (str.at var10 114)))
(assert (= "d" (str.at var58 10)))
(assert (= "`" (str.at var34 930)))
(assert (= """" (str.at var56 243)))
(assert (= "a" (str.at var8 370)))
(assert (= "w" (str.at var56 968)))
(assert (= "l" (str.at var38 281)))
(assert (= "R" (str.at var28 673)))
(assert (= "<" (str.at var54 748)))
(assert (= ">" (str.at var29 901)))
(assert (= "#" (str.at var45 821)))
(assert (= "8" (str.at var18 744)))
(assert (= "p" (str.at var15 975)))
(assert (= "," (str.at var13 936)))
(assert (= "a" (str.at var38 270)))
(assert (= "l" (str.at var44 766)))
(assert (= "?" (str.at var27 897)))
(assert (= "C" (str.at var27 900)))
(assert (= "j" (str.at var40 715)))
(assert (= "a" (str.at var38 672)))
(assert (= "s" (str.at var4 231)))
(assert (= "+" (str.at var46 670)))
(assert (= "1" (str.at var52 912)))
(assert (= "$" (str.at var26 407)))
(assert (= "l" (str.at var19 344)))
(assert (= "j" (str.at var32 103)))
(assert (= "Y" (str.at var51 971)))
(assert (= "^" (str.at var18 151)))
(assert (= "E" (str.at var32 387)))
(assert (= "'" (str.at var45 711)))
(assert (= "x" (str.at var53 549)))
(assert (= ":" (str.at var5 222)))
(assert (= "~" (str.at var0 782)))
(assert (= "D" (str.at var60 78)))
(assert (= ":" (str.at var47 176)))
(assert (= "}" (str.at var4 554)))
(assert (= "F" (str.at var2 424)))
(assert (= "(" (str.at var18 278)))
(assert (= "R" (str.at var53 385)))
(assert (= "i" (str.at var21 756)))
(assert (= "\\" (str.at var36 120)))
(assert (= "n" (str.at var39 803)))
(assert (= "A" (str.at var7 739)))
(assert (= "u" (str.at var17 881)))
(assert (= "!" (str.at var4 108)))
(assert (= "Y" (str.at var10 611)))
(assert (= "l" (str.at var44 844)))
(assert (= "s" (str.at var60 374)))
(assert (= "u" (str.at var0 382)))
(assert (= "d" (str.at var46 97)))
(assert (= "p" (str.at var0 564)))
(assert (= "7" (str.at var6 715)))
(assert (= "-" (str.at var0 726)))
(assert (= "l" (str.at var28 754)))
(assert (= "@" (str.at var21 501)))
(assert (= "e" (str.at var26 864)))
(assert (= "D" (str.at var60 705)))
(assert (= "A" (str.at var33 388)))
(assert (= "f" (str.at var13 618)))
(assert (= "j" (str.at var20 162)))
(assert (= "q" (str.at var29 442)))
(assert (= "e" (str.at var32 16)))
(assert (= ">" (str.at var43 838)))
(assert (= "3" (str.at var48 714)))
(assert (= "J" (str.at var2 721)))
(assert (= "W" (str.at var43 938)))
(assert (= "J" (str.at var8 426)))
(assert (= "T" (str.at var4 765)))
(assert (= "b" (str.at var49 776)))
(assert (= "h" (str.at var21 921)))
(assert (= "p" (str.at var11 454)))
(assert (= "6" (str.at var29 56)))
(assert (= ")" (str.at var32 794)))
(assert (= "'" (str.at var45 65)))
(assert (= "K" (str.at var39 497)))
(assert (= "f" (str.at var41 222)))
(assert (= "b" (str.at var9 603)))
(assert (= "Z" (str.at var5 256)))
(assert (= "b" (str.at var30 361)))
(assert (= "2" (str.at var15 242)))
(assert (= "U" (str.at var20 680)))
(assert (= "e" (str.at var43 608)))
(assert (= "e" (str.at var25 603)))
(assert (= "i" (str.at var35 384)))
(assert (= "`" (str.at var49 80)))
(assert (= "/" (str.at var34 942)))
(assert (= "B" (str.at var9 75)))
(assert (= "|" (str.at var25 744)))
(assert (= "m" (str.at var6 828)))
(assert (= "k" (str.at var0 198)))
(assert (= "l" (str.at var52 112)))
(assert (= "v" (str.at var20 311)))
(assert (= "I" (str.at var17 511)))
(assert (= "u" (str.at var5 480)))
(assert (= "w" (str.at var15 73)))
(assert (= "j" (str.at var39 601)))
(assert (= "L" (str.at var27 316)))
(assert (= "m" (str.at var21 892)))
(assert (= "k" (str.at var21 65)))
(assert (= "T" (str.at var3 339)))
(assert (= "&" (str.at var15 531)))
(assert (= "j" (str.at var39 206)))
(assert (= "^" (str.at var8 120)))
(assert (= "6" (str.at var38 732)))
(assert (= "P" (str.at var9 423)))
(assert (= "," (str.at var49 115)))
(assert (= "7" (str.at var21 260)))
(assert (= "X" (str.at var12 956)))
(assert (= "G" (str.at var60 794)))
(assert (= "3" (str.at var21 236)))
(assert (= "Q" (str.at var57 723)))
(assert (= "I" (str.at var59 378)))
(assert (= "d" (str.at var13 725)))
(assert (= "V" (str.at var6 870)))
(assert (= "^" (str.at var8 814)))
(assert (= "?" (str.at var16 294)))
(assert (= "&" (str.at var24 874)))
(assert (= "D" (str.at var3 536)))
(assert (= "R" (str.at var33 994)))
(assert (= "Z" (str.at var16 710)))
(assert (= "1" (str.at var18 27)))
(assert (= "q" (str.at var59 175)))
(assert (= "8" (str.at var8 23)))
(assert (= "g" (str.at var30 66)))
(assert (= "k" (str.at var39 743)))
(assert (= "b" (str.at var58 413)))
(assert (= "}" (str.at var13 666)))
(assert (= "f" (str.at var47 699)))
(assert (= "Q" (str.at var12 914)))
(assert (= "g" (str.at var24 231)))
(assert (= "^" (str.at var0 835)))
(assert (= "}" (str.at var5 254)))
(assert (= "$" (str.at var13 758)))
(assert (= "0" (str.at var55 519)))
(assert (= "E" (str.at var53 299)))
(assert (= "G" (str.at var31 190)))
(assert (= "P" (str.at var57 500)))
(assert (= "U" (str.at var5 667)))
(assert (= "q" (str.at var8 281)))
(assert (= "M" (str.at var44 188)))
(assert (= "a" (str.at var6 548)))
(assert (= "]" (str.at var2 512)))
(assert (= "2" (str.at var59 784)))
(assert (= "@" (str.at var38 357)))
(assert (= "/" (str.at var4 436)))
(assert (= "P" (str.at var38 289)))
(assert (= "p" (str.at var41 7)))
(assert (= "B" (str.at var60 813)))
(assert (= "]" (str.at var14 119)))
(assert (= "a" (str.at var6 646)))
(assert (= "g" (str.at var41 471)))
(assert (= "b" (str.at var26 243)))
(assert (= "I" (str.at var22 37)))
(assert (= "W" (str.at var5 477)))
(assert (= "]" (str.at var0 183)))
(assert (= "A" (str.at var5 259)))
(assert (= "|" (str.at var33 561)))
(assert (= "j" (str.at var16 856)))
(assert (= "." (str.at var59 844)))
(assert (= "+" (str.at var44 568)))
(assert (= "k" (str.at var31 837)))
(assert (= "Q" (str.at var57 477)))
(assert (= "j" (str.at var36 413)))
(assert (= ";" (str.at var0 721)))
(assert (= "-" (str.at var17 958)))
(assert (= "Z" (str.at var59 493)))
(assert (= "}" (str.at var50 50)))
(assert (= "+" (str.at var51 288)))
(assert (= "-" (str.at var6 506)))
(assert (= "!" (str.at var52 18)))
(assert (= "z" (str.at var15 976)))
(assert (= "v" (str.at var19 686)))
(assert (= "0" (str.at var19 530)))
(assert (= "&" (str.at var31 186)))
(assert (= ">" (str.at var9 455)))
(assert (= "X" (str.at var15 24)))
(assert (= "i" (str.at var12 189)))
(assert (= "%" (str.at var4 224)))
(assert (= "$" (str.at var38 631)))
(assert (= "n" (str.at var4 342)))
(assert (= "=" (str.at var10 445)))
(assert (= "s" (str.at var13 378)))
(assert (= "l" (str.at var24 205)))
(assert (= "O" (str.at var17 500)))
(assert (= "x" (str.at var25 485)))
(assert (= "R" (str.at var5 279)))
(assert (= "Q" (str.at var54 331)))
(assert (= "@" (str.at var42 854)))
(assert (= "S" (str.at var29 837)))
(assert (= ":" (str.at var24 473)))
(assert (= "\\" (str.at var29 158)))
(assert (= "C" (str.at var48 771)))
(assert (= "}" (str.at var45 911)))
(assert (= "T" (str.at var25 176)))
(assert (= "u" (str.at var11 175)))
(assert (= "_" (str.at var3 472)))
(assert (= "a" (str.at var6 757)))
(assert (= "b" (str.at var59 438)))
(assert (= "`" (str.at var16 620)))
(assert (= "T" (str.at var12 343)))
(assert (= "9" (str.at var60 499)))
(assert (= "v" (str.at var60 565)))
(assert (= "3" (str.at var0 962)))
(assert (= "3" (str.at var57 697)))
(assert (= "," (str.at var13 871)))
(assert (= "[" (str.at var24 286)))
(assert (= "j" (str.at var55 138)))
(assert (= "u" (str.at var35 861)))
(assert (= "/" (str.at var42 869)))
(assert (= "_" (str.at var29 448)))
(assert (= "4" (str.at var2 184)))
(assert (= "8" (str.at var39 737)))
(assert (= "X" (str.at var59 718)))
(assert (= "Q" (str.at var59 117)))
(assert (= "R" (str.at var53 351)))
(assert (= "." (str.at var12 434)))
(assert (= "G" (str.at var45 823)))
(assert (= "n" (str.at var20 484)))
(assert (= "*" (str.at var52 762)))
(assert (= "h" (str.at var39 697)))
(assert (= "H" (str.at var35 409)))
(assert (= "2" (str.at var37 818)))
(assert (= "K" (str.at var2 975)))
(assert (= "i" (str.at var58 642)))
(assert (= "z" (str.at var41 648)))
(assert (= "I" (str.at var44 171)))
(assert (= "o" (str.at var25 54)))
(assert (= "_" (str.at var7 56)))
(assert (= "U" (str.at var7 77)))
(assert (= "3" (str.at var44 353)))
(assert (= "R" (str.at var24 583)))
(assert (= "G" (str.at var5 757)))
(assert (= "i" (str.at var10 326)))
(assert (= "*" (str.at var15 773)))
(assert (= ":" (str.at var58 765)))
(assert (= "L" (str.at var49 481)))
(assert (= "s" (str.at var15 160)))
(assert (= "-" (str.at var38 171)))
(assert (= ">" (str.at var29 313)))
(assert (= "1" (str.at var54 632)))
(assert (= "Y" (str.at var13 478)))
(assert (= "n" (str.at var10 563)))
(assert (= "0" (str.at var16 366)))
(assert (= "," (str.at var34 695)))
(assert (= "Z" (str.at var37 348)))
(assert (= "q" (str.at var52 281)))
(assert (= "A" (str.at var58 702)))
(assert (= "|" (str.at var33 933)))
(assert (= "K" (str.at var5 30)))
(assert (= "M" (str.at var47 918)))
(assert (= "m" (str.at var55 398)))
(assert (= "J" (str.at var9 778)))
(assert (= """" (str.at var55 302)))
(assert (= "D" (str.at var28 494)))
(assert (= ";" (str.at var40 656)))
(assert (= "M" (str.at var1 256)))
(assert (= "&" (str.at var9 829)))
(assert (= "I" (str.at var24 348)))
(assert (= "z" (str.at var16 261)))
(assert (= "X" (str.at var55 24)))
(assert (= "b" (str.at var3 257)))
(assert (= "/" (str.at var19 295)))
(assert (= "$" (str.at var39 714)))
(assert (= "i" (str.at var32 463)))
(assert (= "L" (str.at var30 765)))
(assert (= "V" (str.at var19 25)))
(assert (= "v" (str.at var27 113)))
(assert (= "&" (str.at var45 551)))
(assert (= "{" (str.at var10 678)))
(assert (= "r" (str.at var31 697)))
(assert (= "-" (str.at var46 653)))
(assert (= "+" (str.at var36 611)))
(assert (= "0" (str.at var19 606)))
(assert (= "x" (str.at var30 98)))
(assert (= "t" (str.at var16 427)))
(assert (= "o" (str.at var42 85)))
(assert (= "D" (str.at var5 207)))
(assert (= "|" (str.at var1 427)))
(assert (= "g" (str.at var40 734)))
(assert (= "{" (str.at var33 962)))
(assert (= "{" (str.at var1 373)))
(assert (= "C" (str.at var9 900)))
(assert (= "`" (str.at var3 940)))
(assert (= "a" (str.at var11 661)))
(assert (= "(" (str.at var8 886)))
(assert (= "9" (str.at var45 309)))
(assert (= "%" (str.at var39 884)))
(assert (= "Q" (str.at var35 616)))
(assert (= "C" (str.at var49 184)))
(assert (= "I" (str.at var2 967)))
(assert (= "B" (str.at var33 43)))
(assert (= "Z" (str.at var36 126)))
(assert (= "7" (str.at var38 646)))
(assert (= "m" (str.at var8 147)))
(assert (= ":" (str.at var20 540)))
(assert (= "'" (str.at var11 399)))
(assert (= "8" (str.at var39 521)))
(assert (= "P" (str.at var60 788)))
(assert (= "@" (str.at var53 636)))
(assert (= ";" (str.at var19 536)))
(assert (= "7" (str.at var39 653)))
(assert (= "D" (str.at var1 508)))
(assert (= "u" (str.at var46 305)))
(assert (= "b" (str.at var41 189)))
(assert (= "<" (str.at var34 964)))
(assert (= "p" (str.at var28 908)))
(assert (= "n" (str.at var43 185)))
(assert (= "?" (str.at var35 43)))
(assert (= "\\" (str.at var29 160)))
(assert (= "$" (str.at var26 829)))
(assert (= "1" (str.at var16 845)))
(assert (= "9" (str.at var1 786)))
(assert (= "I" (str.at var38 410)))
(assert (= "m" (str.at var2 400)))
(assert (= "U" (str.at var28 351)))
(assert (= "Y" (str.at var45 312)))
(assert (= ")" (str.at var47 756)))
(assert (= "{" (str.at var46 186)))
(assert (= "e" (str.at var6 253)))
(assert (= "u" (str.at var29 433)))
(assert (= "=" (str.at var12 671)))
(assert (= ":" (str.at var18 555)))
(assert (= """" (str.at var56 918)))
(assert (= "9" (str.at var43 715)))
(assert (= "i" (str.at var37 13)))
(assert (= ")" (str.at var7 682)))
(assert (= ")" (str.at var45 246)))
(assert (= "m" (str.at var20 44)))
(assert (= "M" (str.at var18 325)))
(assert (= "m" (str.at var13 838)))
(assert (= "q" (str.at var60 707)))
(assert (= "b" (str.at var10 233)))
(assert (= "P" (str.at var25 601)))
(assert (= "p" (str.at var58 980)))
(assert (= "{" (str.at var17 180)))
(assert (= ";" (str.at var12 465)))
(assert (= "D" (str.at var27 3)))
(assert (= "," (str.at var55 861)))
(assert (= "M" (str.at var32 726)))
(assert (= "2" (str.at var28 666)))
(assert (= ">" (str.at var26 304)))
(assert (= "~" (str.at var60 963)))
(assert (= "]" (str.at var60 56)))
(assert (= "S" (str.at var45 218)))
(assert (= "q" (str.at var36 997)))
(assert (= "-" (str.at var37 587)))
(assert (= "6" (str.at var42 12)))
(assert (= "|" (str.at var47 788)))
(assert (= "z" (str.at var6 991)))
(assert (= "(" (str.at var18 336)))
(assert (= "Y" (str.at var7 243)))
(assert (= "@" (str.at var49 953)))
(assert (= "C" (str.at var48 239)))
(assert (= "Q" (str.at var16 106)))
(assert (= "+" (str.at var35 105)))
(assert (= "j" (str.at var54 684)))
(assert (= "I" (str.at var12 561)))
(assert (= "*" (str.at var44 181)))
(assert (= "u" (str.at var36 484)))
(assert (= "(" (str.at var51 612)))
(assert (= "$" (str.at var36 903)))
(assert (= "|" (str.at var33 920)))
(assert (= "B" (str.at var36 113)))
(assert (= ";" (str.at var26 756)))
(assert (= "h" (str.at var26 322)))
(assert (= "@" (str.at var56 426)))
(assert (= "e" (str.at var2 772)))
(assert (= "c" (str.at var60 843)))
(assert (= "-" (str.at var3 247)))
(assert (= "!" (str.at var52 240)))
(assert (= "W" (str.at var6 343)))
(assert (= "u" (str.at var31 504)))
(assert (= "m" (str.at var37 751)))
(assert (= "D" (str.at var17 524)))
(assert (= "*" (str.at var21 95)))
(assert (= "T" (str.at var33 779)))
(assert (= "}" (str.at var11 81)))
(assert (= "r" (str.at var43 466)))
(assert (= "3" (str.at var54 238)))
(assert (= "s" (str.at var55 729)))
(assert (= "Z" (str.at var4 180)))
(assert (= "O" (str.at var53 380)))
(assert (= "R" (str.at var50 169)))
(assert (= "~" (str.at var8 4)))
(assert (= """" (str.at var46 921)))
(assert (= "n" (str.at var1 131)))
(assert (= "{" (str.at var48 522)))
(assert (= "Y" (str.at var14 337)))
(assert (= "!" (str.at var60 570)))
(assert (= ":" (str.at var36 901)))
(assert (= "M" (str.at var36 706)))
(assert (= "," (str.at var49 720)))
(assert (= "B" (str.at var0 440)))
(assert (= "(" (str.at var29 834)))
(assert (= "'" (str.at var33 632)))
(assert (= "8" (str.at var25 860)))
(assert (= "q" (str.at var2 65)))
(assert (= ">" (str.at var11 287)))
(assert (= "/" (str.at var39 30)))
(assert (= ">" (str.at var36 302)))
(assert (= "h" (str.at var32 893)))
(assert (= "j" (str.at var58 475)))
(assert (= "=" (str.at var7 499)))
(assert (= "." (str.at var0 571)))
(check-sat)